p cnf 432 2085
c p weight 46 0 0
c p weight -46 1 0
c p weight 47 1 0
c p weight -47 1 0
c p weight 55 0 0
c p weight -55 1 0
c p weight 56 1 0
c p weight -56 1 0
c p weight 64 0 0
c p weight -64 1 0
c p weight 65 1 0
c p weight -65 1 0
c p weight 72 0 0
c p weight -72 1 0
c p weight 73 1 0
c p weight -73 1 0
c p weight 81 0 0
c p weight -81 1 0
c p weight 82 1 0
c p weight -82 1 0
c p weight 89 0 0
c p weight -89 1 0
c p weight 90 1 0
c p weight -90 1 0
c p weight 98 0 0
c p weight -98 1 0
c p weight 99 1 0
c p weight -99 1 0
c p weight 107 0 0
c p weight -107 1 0
c p weight 108 1 0
c p weight -108 1 0
c p weight 115 0 0
c p weight -115 1 0
c p weight 116 1 0
c p weight -116 1 0
c p weight 124 0 0
c p weight -124 1 0
c p weight 125 1 0
c p weight -125 1 0
c p weight 133 0 0
c p weight -133 1 0
c p weight 134 1 0
c p weight -134 1 0
c p weight 141 0 0
c p weight -141 1 0
c p weight 142 1 0
c p weight -142 1 0
c p weight 150 0 0
c p weight -150 1 0
c p weight 151 1 0
c p weight -151 1 0
c p weight 159 0 0
c p weight -159 1 0
c p weight 160 1 0
c p weight -160 1 0
c p weight 167 0 0
c p weight -167 1 0
c p weight 168 1 0
c p weight -168 1 0
c p weight 175 0 0
c p weight -175 1 0
c p weight 176 1 0
c p weight -176 1 0
c p weight 184 0 0
c p weight -184 1 0
c p weight 185 1 0
c p weight -185 1 0
c p weight 192 0 0
c p weight -192 1 0
c p weight 193 1 0
c p weight -193 1 0
c p weight 200 0 0
c p weight -200 1 0
c p weight 201 1 0
c p weight -201 1 0
c p weight 209 0 0
c p weight -209 1 0
c p weight 210 1 0
c p weight -210 1 0
c p weight 221 0 0
c p weight -221 1 0
c p weight 222 1 0
c p weight -222 1 0
c p weight 233 0 0
c p weight -233 1 0
c p weight 234 1 0
c p weight -234 1 0
c p weight 244 0 0
c p weight -244 1 0
c p weight 245 1 0
c p weight -245 1 0
c p weight 256 0 0
c p weight -256 1 0
c p weight 257 1 0
c p weight -257 1 0
c p weight 267 0 0
c p weight -267 1 0
c p weight 268 1 0
c p weight -268 1 0
c p weight 279 0 0
c p weight -279 1 0
c p weight 280 1 0
c p weight -280 1 0
c p weight 291 0 0
c p weight -291 1 0
c p weight 292 1 0
c p weight -292 1 0
c p weight 302 0 0
c p weight -302 1 0
c p weight 303 1 0
c p weight -303 1 0
c p weight 314 0 0
c p weight -314 1 0
c p weight 315 1 0
c p weight -315 1 0
c p weight 326 0 0
c p weight -326 1 0
c p weight 327 1 0
c p weight -327 1 0
c p weight 337 0 0
c p weight -337 1 0
c p weight 338 1 0
c p weight -338 1 0
c p weight 349 0 0
c p weight -349 1 0
c p weight 350 1 0
c p weight -350 1 0
c p weight 361 0 0
c p weight -361 1 0
c p weight 362 1 0
c p weight -362 1 0
c p weight 372 0 0
c p weight -372 1 0
c p weight 373 1 0
c p weight -373 1 0
c p weight 383 0 0
c p weight -383 1 0
c p weight 384 1 0
c p weight -384 1 0
c p weight 395 0 0
c p weight -395 1 0
c p weight 396 1 0
c p weight -396 1 0
c p weight 406 0 0
c p weight -406 1 0
c p weight 407 1 0
c p weight -407 1 0
c p weight 417 0 0
c p weight -417 1 0
c p weight 418 1 0
c p weight -418 1 0
c p weight 428 0 0
c p weight -428 1 0
c p weight 429 1 0
c p weight -429 1 0
c p weight 430 -1 0
c p weight -430 1 0
c p weight 432 0.5 0
432 0
-41 0
-39 0
-37 0
-35 0
-33 0
-31 0
-29 0
-27 0
-25 0
-23 0
-21 0
-19 0
-17 0
-15 0
-13 0
-11 0
-9 0
-7 0
-5 0
-3 0
-1 0
42 -41 1 0
42 -41 2 0
-42 41 1 0
-42 41 2 0
42 41 -1 -2 0
-42 -41 -1 -2 0
43 1 -2 0
43 -1 2 0
-43 1 2 0
-43 -1 -2 0
44 45 -42 0
44 -42 43 0
-44 45 42 0
-44 42 43 0
44 -42 -1 0
-44 42 -1 0
44 -45 42 1 -43 0
-44 -45 -42 1 -43 0
45 -1 43 0
-45 1 43 0
-46 43 0
45 -46 -1 0
-45 -46 1 0
45 46 1 -43 0
-45 46 -1 -43 0
-47 43 0
45 -47 1 0
-45 -47 -1 0
45 47 -1 -43 0
-45 47 1 -43 0
48 -44 45 0
48 -44 43 0
-48 44 45 0
-48 44 43 0
48 44 -45 -43 0
-48 -44 -45 -43 0
49 45 -43 0
49 -45 43 0
-49 45 43 0
-49 -45 -43 0
50 48 -49 0
50 -48 49 0
-50 48 49 0
-50 -48 -49 0
51 -50 3 0
51 -50 4 0
-51 50 3 0
-51 50 4 0
51 50 -3 -4 0
-51 -50 -3 -4 0
52 3 -4 0
52 -3 4 0
-52 3 4 0
-52 -3 -4 0
53 54 -51 0
53 -51 52 0
-53 54 51 0
-53 51 52 0
53 -51 -3 0
-53 51 -3 0
53 -54 51 3 -52 0
-53 -54 -51 3 -52 0
54 -3 52 0
-54 3 52 0
-55 52 0
54 -55 -3 0
-54 -55 3 0
54 55 3 -52 0
-54 55 -3 -52 0
-56 52 0
54 -56 3 0
-54 -56 -3 0
54 56 -3 -52 0
-54 56 3 -52 0
57 -53 54 0
57 -53 52 0
-57 53 54 0
-57 53 52 0
57 53 -54 -52 0
-57 -53 -54 -52 0
58 54 -52 0
58 -54 52 0
-58 54 52 0
-58 -54 -52 0
59 57 -58 0
59 -57 58 0
-59 57 58 0
-59 -57 -58 0
60 -59 5 0
60 -59 6 0
-60 59 5 0
-60 59 6 0
60 59 -5 -6 0
-60 -59 -5 -6 0
61 5 -6 0
61 -5 6 0
-61 5 6 0
-61 -5 -6 0
62 63 -60 0
62 -60 61 0
-62 63 60 0
-62 60 61 0
62 -60 -5 0
-62 60 -5 0
62 -63 60 5 -61 0
-62 -63 -60 5 -61 0
63 -5 61 0
-63 5 61 0
-64 61 0
63 -64 -5 0
-63 -64 5 0
63 64 5 -61 0
-63 64 -5 -61 0
-65 61 0
63 -65 5 0
-63 -65 -5 0
63 65 -5 -61 0
-63 65 5 -61 0
66 -62 63 0
66 -62 61 0
-66 62 63 0
-66 62 61 0
66 62 -63 -61 0
-66 -62 -63 -61 0
67 63 -61 0
67 -63 61 0
-67 63 61 0
-67 -63 -61 0
68 -66 7 0
68 -66 8 0
-68 66 7 0
-68 66 8 0
68 66 -7 -8 0
-68 -66 -7 -8 0
69 7 -8 0
69 -7 8 0
-69 7 8 0
-69 -7 -8 0
70 71 -68 0
70 -68 69 0
-70 71 68 0
-70 68 69 0
70 -68 -7 0
-70 68 -7 0
70 -71 68 7 -69 0
-70 -71 -68 7 -69 0
71 -7 69 0
-71 7 69 0
-72 69 0
71 -72 -7 0
-71 -72 7 0
71 72 7 -69 0
-71 72 -7 -69 0
-73 69 0
71 -73 7 0
-71 -73 -7 0
71 73 -7 -69 0
-71 73 7 -69 0
74 -70 71 0
74 -70 69 0
-74 70 71 0
-74 70 69 0
74 70 -71 -69 0
-74 -70 -71 -69 0
75 71 -69 0
75 -71 69 0
-75 71 69 0
-75 -71 -69 0
76 74 -75 0
76 -74 75 0
-76 74 75 0
-76 -74 -75 0
77 -76 9 0
77 -76 10 0
-77 76 9 0
-77 76 10 0
77 76 -9 -10 0
-77 -76 -9 -10 0
78 9 -10 0
78 -9 10 0
-78 9 10 0
-78 -9 -10 0
79 80 -77 0
79 -77 78 0
-79 80 77 0
-79 77 78 0
79 -77 -9 0
-79 77 -9 0
79 -80 77 9 -78 0
-79 -80 -77 9 -78 0
80 -9 78 0
-80 9 78 0
-81 78 0
80 -81 -9 0
-80 -81 9 0
80 81 9 -78 0
-80 81 -9 -78 0
-82 78 0
80 -82 9 0
-80 -82 -9 0
80 82 -9 -78 0
-80 82 9 -78 0
83 -79 80 0
83 -79 78 0
-83 79 80 0
-83 79 78 0
83 79 -80 -78 0
-83 -79 -80 -78 0
84 80 -78 0
84 -80 78 0
-84 80 78 0
-84 -80 -78 0
85 -83 11 0
85 -83 12 0
-85 83 11 0
-85 83 12 0
85 83 -11 -12 0
-85 -83 -11 -12 0
86 11 -12 0
86 -11 12 0
-86 11 12 0
-86 -11 -12 0
87 88 -85 0
87 -85 86 0
-87 88 85 0
-87 85 86 0
87 -85 -11 0
-87 85 -11 0
87 -88 85 11 -86 0
-87 -88 -85 11 -86 0
88 -11 86 0
-88 11 86 0
-89 86 0
88 -89 -11 0
-88 -89 11 0
88 89 11 -86 0
-88 89 -11 -86 0
-90 86 0
88 -90 11 0
-88 -90 -11 0
88 90 -11 -86 0
-88 90 11 -86 0
91 -87 88 0
91 -87 86 0
-91 87 88 0
-91 87 86 0
91 87 -88 -86 0
-91 -87 -88 -86 0
92 88 -86 0
92 -88 86 0
-92 88 86 0
-92 -88 -86 0
93 91 -92 0
93 -91 92 0
-93 91 92 0
-93 -91 -92 0
94 -93 13 0
94 -93 14 0
-94 93 13 0
-94 93 14 0
94 93 -13 -14 0
-94 -93 -13 -14 0
95 13 -14 0
95 -13 14 0
-95 13 14 0
-95 -13 -14 0
96 97 -94 0
96 -94 95 0
-96 97 94 0
-96 94 95 0
96 -94 -13 0
-96 94 -13 0
96 -97 94 13 -95 0
-96 -97 -94 13 -95 0
97 -13 95 0
-97 13 95 0
-98 95 0
97 -98 -13 0
-97 -98 13 0
97 98 13 -95 0
-97 98 -13 -95 0
-99 95 0
97 -99 13 0
-97 -99 -13 0
97 99 -13 -95 0
-97 99 13 -95 0
100 -96 97 0
100 -96 95 0
-100 96 97 0
-100 96 95 0
100 96 -97 -95 0
-100 -96 -97 -95 0
101 97 -95 0
101 -97 95 0
-101 97 95 0
-101 -97 -95 0
102 100 -101 0
102 -100 101 0
-102 100 101 0
-102 -100 -101 0
103 -102 15 0
103 -102 16 0
-103 102 15 0
-103 102 16 0
103 102 -15 -16 0
-103 -102 -15 -16 0
104 15 -16 0
104 -15 16 0
-104 15 16 0
-104 -15 -16 0
105 106 -103 0
105 -103 104 0
-105 106 103 0
-105 103 104 0
105 -103 -15 0
-105 103 -15 0
105 -106 103 15 -104 0
-105 -106 -103 15 -104 0
106 -15 104 0
-106 15 104 0
-107 104 0
106 -107 -15 0
-106 -107 15 0
106 107 15 -104 0
-106 107 -15 -104 0
-108 104 0
106 -108 15 0
-106 -108 -15 0
106 108 -15 -104 0
-106 108 15 -104 0
109 -105 106 0
109 -105 104 0
-109 105 106 0
-109 105 104 0
109 105 -106 -104 0
-109 -105 -106 -104 0
110 106 -104 0
110 -106 104 0
-110 106 104 0
-110 -106 -104 0
111 -109 17 0
111 -109 18 0
-111 109 17 0
-111 109 18 0
111 109 -17 -18 0
-111 -109 -17 -18 0
112 17 -18 0
112 -17 18 0
-112 17 18 0
-112 -17 -18 0
113 114 -111 0
113 -111 112 0
-113 114 111 0
-113 111 112 0
113 -111 -17 0
-113 111 -17 0
113 -114 111 17 -112 0
-113 -114 -111 17 -112 0
114 -17 112 0
-114 17 112 0
-115 112 0
114 -115 -17 0
-114 -115 17 0
114 115 17 -112 0
-114 115 -17 -112 0
-116 112 0
114 -116 17 0
-114 -116 -17 0
114 116 -17 -112 0
-114 116 17 -112 0
117 -113 114 0
117 -113 112 0
-117 113 114 0
-117 113 112 0
117 113 -114 -112 0
-117 -113 -114 -112 0
118 114 -112 0
118 -114 112 0
-118 114 112 0
-118 -114 -112 0
119 117 -118 0
119 -117 118 0
-119 117 118 0
-119 -117 -118 0
120 -119 19 0
120 -119 20 0
-120 119 19 0
-120 119 20 0
120 119 -19 -20 0
-120 -119 -19 -20 0
121 19 -20 0
121 -19 20 0
-121 19 20 0
-121 -19 -20 0
122 123 -120 0
122 -120 121 0
-122 123 120 0
-122 120 121 0
122 -120 -19 0
-122 120 -19 0
122 -123 120 19 -121 0
-122 -123 -120 19 -121 0
123 -19 121 0
-123 19 121 0
-124 121 0
123 -124 -19 0
-123 -124 19 0
123 124 19 -121 0
-123 124 -19 -121 0
-125 121 0
123 -125 19 0
-123 -125 -19 0
123 125 -19 -121 0
-123 125 19 -121 0
126 -122 123 0
126 -122 121 0
-126 122 123 0
-126 122 121 0
126 122 -123 -121 0
-126 -122 -123 -121 0
127 123 -121 0
127 -123 121 0
-127 123 121 0
-127 -123 -121 0
128 126 -127 0
128 -126 127 0
-128 126 127 0
-128 -126 -127 0
129 -128 21 0
129 -128 22 0
-129 128 21 0
-129 128 22 0
129 128 -21 -22 0
-129 -128 -21 -22 0
130 21 -22 0
130 -21 22 0
-130 21 22 0
-130 -21 -22 0
131 132 -129 0
131 -129 130 0
-131 132 129 0
-131 129 130 0
131 -129 -21 0
-131 129 -21 0
131 -132 129 21 -130 0
-131 -132 -129 21 -130 0
132 -21 130 0
-132 21 130 0
-133 130 0
132 -133 -21 0
-132 -133 21 0
132 133 21 -130 0
-132 133 -21 -130 0
-134 130 0
132 -134 21 0
-132 -134 -21 0
132 134 -21 -130 0
-132 134 21 -130 0
135 -131 132 0
135 -131 130 0
-135 131 132 0
-135 131 130 0
135 131 -132 -130 0
-135 -131 -132 -130 0
136 132 -130 0
136 -132 130 0
-136 132 130 0
-136 -132 -130 0
137 -135 23 0
137 -135 24 0
-137 135 23 0
-137 135 24 0
137 135 -23 -24 0
-137 -135 -23 -24 0
138 23 -24 0
138 -23 24 0
-138 23 24 0
-138 -23 -24 0
139 140 -137 0
139 -137 138 0
-139 140 137 0
-139 137 138 0
139 -137 -23 0
-139 137 -23 0
139 -140 137 23 -138 0
-139 -140 -137 23 -138 0
140 -23 138 0
-140 23 138 0
-141 138 0
140 -141 -23 0
-140 -141 23 0
140 141 23 -138 0
-140 141 -23 -138 0
-142 138 0
140 -142 23 0
-140 -142 -23 0
140 142 -23 -138 0
-140 142 23 -138 0
143 -139 140 0
143 -139 138 0
-143 139 140 0
-143 139 138 0
143 139 -140 -138 0
-143 -139 -140 -138 0
144 140 -138 0
144 -140 138 0
-144 140 138 0
-144 -140 -138 0
145 143 -144 0
145 -143 144 0
-145 143 144 0
-145 -143 -144 0
146 -145 25 0
146 -145 26 0
-146 145 25 0
-146 145 26 0
146 145 -25 -26 0
-146 -145 -25 -26 0
147 25 -26 0
147 -25 26 0
-147 25 26 0
-147 -25 -26 0
148 149 -146 0
148 -146 147 0
-148 149 146 0
-148 146 147 0
148 -146 -25 0
-148 146 -25 0
148 -149 146 25 -147 0
-148 -149 -146 25 -147 0
149 -25 147 0
-149 25 147 0
-150 147 0
149 -150 -25 0
-149 -150 25 0
149 150 25 -147 0
-149 150 -25 -147 0
-151 147 0
149 -151 25 0
-149 -151 -25 0
149 151 -25 -147 0
-149 151 25 -147 0
152 -148 149 0
152 -148 147 0
-152 148 149 0
-152 148 147 0
152 148 -149 -147 0
-152 -148 -149 -147 0
153 149 -147 0
153 -149 147 0
-153 149 147 0
-153 -149 -147 0
154 152 -153 0
154 -152 153 0
-154 152 153 0
-154 -152 -153 0
155 -154 27 0
155 -154 28 0
-155 154 27 0
-155 154 28 0
155 154 -27 -28 0
-155 -154 -27 -28 0
156 27 -28 0
156 -27 28 0
-156 27 28 0
-156 -27 -28 0
157 158 -155 0
157 -155 156 0
-157 158 155 0
-157 155 156 0
157 -155 -27 0
-157 155 -27 0
157 -158 155 27 -156 0
-157 -158 -155 27 -156 0
158 -27 156 0
-158 27 156 0
-159 156 0
158 -159 -27 0
-158 -159 27 0
158 159 27 -156 0
-158 159 -27 -156 0
-160 156 0
158 -160 27 0
-158 -160 -27 0
158 160 -27 -156 0
-158 160 27 -156 0
161 -157 158 0
161 -157 156 0
-161 157 158 0
-161 157 156 0
161 157 -158 -156 0
-161 -157 -158 -156 0
162 158 -156 0
162 -158 156 0
-162 158 156 0
-162 -158 -156 0
163 -161 29 0
163 -161 30 0
-163 161 29 0
-163 161 30 0
163 161 -29 -30 0
-163 -161 -29 -30 0
164 29 -30 0
164 -29 30 0
-164 29 30 0
-164 -29 -30 0
165 166 -163 0
165 -163 164 0
-165 166 163 0
-165 163 164 0
165 -163 -29 0
-165 163 -29 0
165 -166 163 29 -164 0
-165 -166 -163 29 -164 0
166 -29 164 0
-166 29 164 0
-167 164 0
166 -167 -29 0
-166 -167 29 0
166 167 29 -164 0
-166 167 -29 -164 0
-168 164 0
166 -168 29 0
-166 -168 -29 0
166 168 -29 -164 0
-166 168 29 -164 0
169 -165 166 0
169 -165 164 0
-169 165 166 0
-169 165 164 0
169 165 -166 -164 0
-169 -165 -166 -164 0
170 166 -164 0
170 -166 164 0
-170 166 164 0
-170 -166 -164 0
171 -169 31 0
171 -169 32 0
-171 169 31 0
-171 169 32 0
171 169 -31 -32 0
-171 -169 -31 -32 0
172 31 -32 0
172 -31 32 0
-172 31 32 0
-172 -31 -32 0
173 174 -171 0
173 -171 172 0
-173 174 171 0
-173 171 172 0
173 -171 -31 0
-173 171 -31 0
173 -174 171 31 -172 0
-173 -174 -171 31 -172 0
174 -31 172 0
-174 31 172 0
-175 172 0
174 -175 -31 0
-174 -175 31 0
174 175 31 -172 0
-174 175 -31 -172 0
-176 172 0
174 -176 31 0
-174 -176 -31 0
174 176 -31 -172 0
-174 176 31 -172 0
177 -173 174 0
177 -173 172 0
-177 173 174 0
-177 173 172 0
177 173 -174 -172 0
-177 -173 -174 -172 0
178 174 -172 0
178 -174 172 0
-178 174 172 0
-178 -174 -172 0
179 177 -178 0
179 -177 178 0
-179 177 178 0
-179 -177 -178 0
180 -179 33 0
180 -179 34 0
-180 179 33 0
-180 179 34 0
180 179 -33 -34 0
-180 -179 -33 -34 0
181 33 -34 0
181 -33 34 0
-181 33 34 0
-181 -33 -34 0
182 183 -180 0
182 -180 181 0
-182 183 180 0
-182 180 181 0
182 -180 -33 0
-182 180 -33 0
182 -183 180 33 -181 0
-182 -183 -180 33 -181 0
183 -33 181 0
-183 33 181 0
-184 181 0
183 -184 -33 0
-183 -184 33 0
183 184 33 -181 0
-183 184 -33 -181 0
-185 181 0
183 -185 33 0
-183 -185 -33 0
183 185 -33 -181 0
-183 185 33 -181 0
186 -182 183 0
186 -182 181 0
-186 182 183 0
-186 182 181 0
186 182 -183 -181 0
-186 -182 -183 -181 0
187 183 -181 0
187 -183 181 0
-187 183 181 0
-187 -183 -181 0
188 -186 35 0
188 -186 36 0
-188 186 35 0
-188 186 36 0
188 186 -35 -36 0
-188 -186 -35 -36 0
189 35 -36 0
189 -35 36 0
-189 35 36 0
-189 -35 -36 0
190 191 -188 0
190 -188 189 0
-190 191 188 0
-190 188 189 0
190 -188 -35 0
-190 188 -35 0
190 -191 188 35 -189 0
-190 -191 -188 35 -189 0
191 -35 189 0
-191 35 189 0
-192 189 0
191 -192 -35 0
-191 -192 35 0
191 192 35 -189 0
-191 192 -35 -189 0
-193 189 0
191 -193 35 0
-191 -193 -35 0
191 193 -35 -189 0
-191 193 35 -189 0
194 -190 191 0
194 -190 189 0
-194 190 191 0
-194 190 189 0
194 190 -191 -189 0
-194 -190 -191 -189 0
195 191 -189 0
195 -191 189 0
-195 191 189 0
-195 -191 -189 0
196 -194 37 0
196 -194 38 0
-196 194 37 0
-196 194 38 0
196 194 -37 -38 0
-196 -194 -37 -38 0
197 37 -38 0
197 -37 38 0
-197 37 38 0
-197 -37 -38 0
198 199 -196 0
198 -196 197 0
-198 199 196 0
-198 196 197 0
198 -196 -37 0
-198 196 -37 0
198 -199 196 37 -197 0
-198 -199 -196 37 -197 0
199 -37 197 0
-199 37 197 0
-200 197 0
199 -200 -37 0
-199 -200 37 0
199 200 37 -197 0
-199 200 -37 -197 0
-201 197 0
199 -201 37 0
-199 -201 -37 0
199 201 -37 -197 0
-199 201 37 -197 0
202 -198 199 0
202 -198 197 0
-202 198 199 0
-202 198 197 0
202 198 -199 -197 0
-202 -198 -199 -197 0
203 199 -197 0
203 -199 197 0
-203 199 197 0
-203 -199 -197 0
204 202 -40 0
204 -202 40 0
-204 202 40 0
-204 -202 -40 0
205 -204 39 0
205 -204 40 0
-205 204 39 0
-205 204 40 0
205 204 -39 -40 0
-205 -204 -39 -40 0
206 39 -40 0
206 -39 40 0
-206 39 40 0
-206 -39 -40 0
207 208 -205 0
207 -205 206 0
-207 208 205 0
-207 205 206 0
207 -205 -39 0
-207 205 -39 0
207 -208 205 39 -206 0
-207 -208 -205 39 -206 0
208 -39 206 0
-208 39 206 0
-209 206 0
208 -209 -39 0
-208 -209 39 0
208 209 39 -206 0
-208 209 -39 -206 0
-210 206 0
208 -210 39 0
-208 -210 -39 0
208 210 -39 -206 0
-208 210 39 -206 0
211 -207 208 0
211 -207 206 0
-211 207 208 0
-211 207 206 0
211 207 -208 -206 0
-211 -207 -208 -206 0
212 208 -206 0
212 -208 206 0
-212 208 206 0
-212 -208 -206 0
213 -211 45 0
213 -211 212 0
-213 211 45 0
-213 211 212 0
213 -211 208 -49 0
213 -211 -208 49 0
-213 211 208 -49 0
-213 211 -208 49 0
213 211 -45 208 49 -212 0
213 211 -45 -208 -49 -212 0
-213 -211 -45 208 49 -212 0
-213 -211 -45 -208 -49 -212 0
215 45 -208 0
215 -45 208 0
-215 45 208 0
-215 -45 -208 0
214 49 -212 0
214 -49 212 0
-214 49 212 0
-214 -49 -212 0
216 213 -214 0
216 -213 214 0
-216 213 214 0
-216 -213 -214 0
217 -216 45 0
217 -216 214 0
-217 216 45 0
-217 216 214 0
217 216 -45 -214 0
-217 -216 -45 -214 0
218 45 -214 0
218 -45 214 0
-218 45 214 0
-218 -45 -214 0
219 220 -217 0
219 -217 218 0
-219 220 217 0
-219 217 218 0
219 -217 -45 0
-219 217 -45 0
219 -220 217 45 -218 0
-219 -220 -217 45 -218 0
220 -45 218 0
-220 45 218 0
-221 218 0
220 -221 -45 0
-220 -221 45 0
220 221 45 -218 0
-220 221 -45 -218 0
-222 218 0
220 -222 45 0
-220 -222 -45 0
220 222 -45 -218 0
-220 222 45 -218 0
223 -219 220 0
223 -219 218 0
-223 219 220 0
-223 219 218 0
223 219 -220 -218 0
-223 -219 -220 -218 0
224 220 -218 0
224 -220 218 0
-224 220 218 0
-224 -220 -218 0
225 -223 54 0
225 -223 212 0
-225 223 54 0
-225 223 212 0
225 -223 215 -58 0
225 -223 -215 58 0
-225 223 215 -58 0
-225 223 -215 58 0
225 223 -54 215 58 -212 0
225 223 -54 -215 -58 -212 0
-225 -223 -54 215 58 -212 0
-225 -223 -54 -215 -58 -212 0
227 54 -215 0
227 -54 215 0
-227 54 215 0
-227 -54 -215 0
226 58 -212 0
226 -58 212 0
-226 58 212 0
-226 -58 -212 0
228 225 -226 0
228 -225 226 0
-228 225 226 0
-228 -225 -226 0
229 -228 54 0
229 -228 226 0
-229 228 54 0
-229 228 226 0
229 228 -54 -226 0
-229 -228 -54 -226 0
230 54 -226 0
230 -54 226 0
-230 54 226 0
-230 -54 -226 0
231 232 -229 0
231 -229 230 0
-231 232 229 0
-231 229 230 0
231 -229 -54 0
-231 229 -54 0
231 -232 229 54 -230 0
-231 -232 -229 54 -230 0
232 -54 230 0
-232 54 230 0
-233 230 0
232 -233 -54 0
-232 -233 54 0
232 233 54 -230 0
-232 233 -54 -230 0
-234 230 0
232 -234 54 0
-232 -234 -54 0
232 234 -54 -230 0
-232 234 54 -230 0
235 -231 232 0
235 -231 230 0
-235 231 232 0
-235 231 230 0
235 231 -232 -230 0
-235 -231 -232 -230 0
236 232 -230 0
236 -232 230 0
-236 232 230 0
-236 -232 -230 0
237 -235 63 0
237 -235 212 0
-237 235 63 0
-237 235 212 0
237 -235 227 -67 0
237 -235 -227 67 0
-237 235 227 -67 0
-237 235 -227 67 0
237 235 -63 227 67 -212 0
237 235 -63 -227 -67 -212 0
-237 -235 -63 227 67 -212 0
-237 -235 -63 -227 -67 -212 0
239 63 -227 0
239 -63 227 0
-239 63 227 0
-239 -63 -227 0
238 67 -212 0
238 -67 212 0
-238 67 212 0
-238 -67 -212 0
240 -237 63 0
240 -237 238 0
-240 237 63 0
-240 237 238 0
240 237 -63 -238 0
-240 -237 -63 -238 0
241 63 -238 0
241 -63 238 0
-241 63 238 0
-241 -63 -238 0
242 243 -240 0
242 -240 241 0
-242 243 240 0
-242 240 241 0
242 -240 -63 0
-242 240 -63 0
242 -243 240 63 -241 0
-242 -243 -240 63 -241 0
243 -63 241 0
-243 63 241 0
-244 241 0
243 -244 -63 0
-243 -244 63 0
243 244 63 -241 0
-243 244 -63 -241 0
-245 241 0
243 -245 63 0
-243 -245 -63 0
243 245 -63 -241 0
-243 245 63 -241 0
246 -242 243 0
246 -242 241 0
-246 242 243 0
-246 242 241 0
246 242 -243 -241 0
-246 -242 -243 -241 0
247 243 -241 0
247 -243 241 0
-247 243 241 0
-247 -243 -241 0
248 -246 71 0
248 -246 212 0
-248 246 71 0
-248 246 212 0
248 -246 239 -75 0
248 -246 -239 75 0
-248 246 239 -75 0
-248 246 -239 75 0
248 246 -71 239 75 -212 0
248 246 -71 -239 -75 -212 0
-248 -246 -71 239 75 -212 0
-248 -246 -71 -239 -75 -212 0
250 71 -239 0
250 -71 239 0
-250 71 239 0
-250 -71 -239 0
249 75 -212 0
249 -75 212 0
-249 75 212 0
-249 -75 -212 0
251 248 -249 0
251 -248 249 0
-251 248 249 0
-251 -248 -249 0
252 -251 71 0
252 -251 249 0
-252 251 71 0
-252 251 249 0
252 251 -71 -249 0
-252 -251 -71 -249 0
253 71 -249 0
253 -71 249 0
-253 71 249 0
-253 -71 -249 0
254 255 -252 0
254 -252 253 0
-254 255 252 0
-254 252 253 0
254 -252 -71 0
-254 252 -71 0
254 -255 252 71 -253 0
-254 -255 -252 71 -253 0
255 -71 253 0
-255 71 253 0
-256 253 0
255 -256 -71 0
-255 -256 71 0
255 256 71 -253 0
-255 256 -71 -253 0
-257 253 0
255 -257 71 0
-255 -257 -71 0
255 257 -71 -253 0
-255 257 71 -253 0
258 -254 255 0
258 -254 253 0
-258 254 255 0
-258 254 253 0
258 254 -255 -253 0
-258 -254 -255 -253 0
259 255 -253 0
259 -255 253 0
-259 255 253 0
-259 -255 -253 0
260 -258 80 0
260 -258 212 0
-260 258 80 0
-260 258 212 0
260 -258 250 -84 0
260 -258 -250 84 0
-260 258 250 -84 0
-260 258 -250 84 0
260 258 -80 250 84 -212 0
260 258 -80 -250 -84 -212 0
-260 -258 -80 250 84 -212 0
-260 -258 -80 -250 -84 -212 0
262 80 -250 0
262 -80 250 0
-262 80 250 0
-262 -80 -250 0
261 84 -212 0
261 -84 212 0
-261 84 212 0
-261 -84 -212 0
263 -260 80 0
263 -260 261 0
-263 260 80 0
-263 260 261 0
263 260 -80 -261 0
-263 -260 -80 -261 0
264 80 -261 0
264 -80 261 0
-264 80 261 0
-264 -80 -261 0
265 266 -263 0
265 -263 264 0
-265 266 263 0
-265 263 264 0
265 -263 -80 0
-265 263 -80 0
265 -266 263 80 -264 0
-265 -266 -263 80 -264 0
266 -80 264 0
-266 80 264 0
-267 264 0
266 -267 -80 0
-266 -267 80 0
266 267 80 -264 0
-266 267 -80 -264 0
-268 264 0
266 -268 80 0
-266 -268 -80 0
266 268 -80 -264 0
-266 268 80 -264 0
269 -265 266 0
269 -265 264 0
-269 265 266 0
-269 265 264 0
269 265 -266 -264 0
-269 -265 -266 -264 0
270 266 -264 0
270 -266 264 0
-270 266 264 0
-270 -266 -264 0
271 -269 88 0
271 -269 212 0
-271 269 88 0
-271 269 212 0
271 -269 262 -92 0
271 -269 -262 92 0
-271 269 262 -92 0
-271 269 -262 92 0
271 269 -88 262 92 -212 0
271 269 -88 -262 -92 -212 0
-271 -269 -88 262 92 -212 0
-271 -269 -88 -262 -92 -212 0
273 88 -262 0
273 -88 262 0
-273 88 262 0
-273 -88 -262 0
272 92 -212 0
272 -92 212 0
-272 92 212 0
-272 -92 -212 0
274 271 -272 0
274 -271 272 0
-274 271 272 0
-274 -271 -272 0
275 -274 88 0
275 -274 272 0
-275 274 88 0
-275 274 272 0
275 274 -88 -272 0
-275 -274 -88 -272 0
276 88 -272 0
276 -88 272 0
-276 88 272 0
-276 -88 -272 0
277 278 -275 0
277 -275 276 0
-277 278 275 0
-277 275 276 0
277 -275 -88 0
-277 275 -88 0
277 -278 275 88 -276 0
-277 -278 -275 88 -276 0
278 -88 276 0
-278 88 276 0
-279 276 0
278 -279 -88 0
-278 -279 88 0
278 279 88 -276 0
-278 279 -88 -276 0
-280 276 0
278 -280 88 0
-278 -280 -88 0
278 280 -88 -276 0
-278 280 88 -276 0
281 -277 278 0
281 -277 276 0
-281 277 278 0
-281 277 276 0
281 277 -278 -276 0
-281 -277 -278 -276 0
282 278 -276 0
282 -278 276 0
-282 278 276 0
-282 -278 -276 0
283 -281 97 0
283 -281 212 0
-283 281 97 0
-283 281 212 0
283 -281 273 -101 0
283 -281 -273 101 0
-283 281 273 -101 0
-283 281 -273 101 0
283 281 -97 273 101 -212 0
283 281 -97 -273 -101 -212 0
-283 -281 -97 273 101 -212 0
-283 -281 -97 -273 -101 -212 0
285 97 -273 0
285 -97 273 0
-285 97 273 0
-285 -97 -273 0
284 101 -212 0
284 -101 212 0
-284 101 212 0
-284 -101 -212 0
286 283 -284 0
286 -283 284 0
-286 283 284 0
-286 -283 -284 0
287 -286 97 0
287 -286 284 0
-287 286 97 0
-287 286 284 0
287 286 -97 -284 0
-287 -286 -97 -284 0
288 97 -284 0
288 -97 284 0
-288 97 284 0
-288 -97 -284 0
289 290 -287 0
289 -287 288 0
-289 290 287 0
-289 287 288 0
289 -287 -97 0
-289 287 -97 0
289 -290 287 97 -288 0
-289 -290 -287 97 -288 0
290 -97 288 0
-290 97 288 0
-291 288 0
290 -291 -97 0
-290 -291 97 0
290 291 97 -288 0
-290 291 -97 -288 0
-292 288 0
290 -292 97 0
-290 -292 -97 0
290 292 -97 -288 0
-290 292 97 -288 0
293 -289 290 0
293 -289 288 0
-293 289 290 0
-293 289 288 0
293 289 -290 -288 0
-293 -289 -290 -288 0
294 290 -288 0
294 -290 288 0
-294 290 288 0
-294 -290 -288 0
295 -293 106 0
295 -293 212 0
-295 293 106 0
-295 293 212 0
295 -293 285 -110 0
295 -293 -285 110 0
-295 293 285 -110 0
-295 293 -285 110 0
295 293 -106 285 110 -212 0
295 293 -106 -285 -110 -212 0
-295 -293 -106 285 110 -212 0
-295 -293 -106 -285 -110 -212 0
297 106 -285 0
297 -106 285 0
-297 106 285 0
-297 -106 -285 0
296 110 -212 0
296 -110 212 0
-296 110 212 0
-296 -110 -212 0
298 -295 106 0
298 -295 296 0
-298 295 106 0
-298 295 296 0
298 295 -106 -296 0
-298 -295 -106 -296 0
299 106 -296 0
299 -106 296 0
-299 106 296 0
-299 -106 -296 0
300 301 -298 0
300 -298 299 0
-300 301 298 0
-300 298 299 0
300 -298 -106 0
-300 298 -106 0
300 -301 298 106 -299 0
-300 -301 -298 106 -299 0
301 -106 299 0
-301 106 299 0
-302 299 0
301 -302 -106 0
-301 -302 106 0
301 302 106 -299 0
-301 302 -106 -299 0
-303 299 0
301 -303 106 0
-301 -303 -106 0
301 303 -106 -299 0
-301 303 106 -299 0
304 -300 301 0
304 -300 299 0
-304 300 301 0
-304 300 299 0
304 300 -301 -299 0
-304 -300 -301 -299 0
305 301 -299 0
305 -301 299 0
-305 301 299 0
-305 -301 -299 0
306 -304 114 0
306 -304 212 0
-306 304 114 0
-306 304 212 0
306 -304 297 -118 0
306 -304 -297 118 0
-306 304 297 -118 0
-306 304 -297 118 0
306 304 -114 297 118 -212 0
306 304 -114 -297 -118 -212 0
-306 -304 -114 297 118 -212 0
-306 -304 -114 -297 -118 -212 0
308 114 -297 0
308 -114 297 0
-308 114 297 0
-308 -114 -297 0
307 118 -212 0
307 -118 212 0
-307 118 212 0
-307 -118 -212 0
309 306 -307 0
309 -306 307 0
-309 306 307 0
-309 -306 -307 0
310 -309 114 0
310 -309 307 0
-310 309 114 0
-310 309 307 0
310 309 -114 -307 0
-310 -309 -114 -307 0
311 114 -307 0
311 -114 307 0
-311 114 307 0
-311 -114 -307 0
312 313 -310 0
312 -310 311 0
-312 313 310 0
-312 310 311 0
312 -310 -114 0
-312 310 -114 0
312 -313 310 114 -311 0
-312 -313 -310 114 -311 0
313 -114 311 0
-313 114 311 0
-314 311 0
313 -314 -114 0
-313 -314 114 0
313 314 114 -311 0
-313 314 -114 -311 0
-315 311 0
313 -315 114 0
-313 -315 -114 0
313 315 -114 -311 0
-313 315 114 -311 0
316 -312 313 0
316 -312 311 0
-316 312 313 0
-316 312 311 0
316 312 -313 -311 0
-316 -312 -313 -311 0
317 313 -311 0
317 -313 311 0
-317 313 311 0
-317 -313 -311 0
318 -316 123 0
318 -316 212 0
-318 316 123 0
-318 316 212 0
318 -316 308 -127 0
318 -316 -308 127 0
-318 316 308 -127 0
-318 316 -308 127 0
318 316 -123 308 127 -212 0
318 316 -123 -308 -127 -212 0
-318 -316 -123 308 127 -212 0
-318 -316 -123 -308 -127 -212 0
320 123 -308 0
320 -123 308 0
-320 123 308 0
-320 -123 -308 0
319 127 -212 0
319 -127 212 0
-319 127 212 0
-319 -127 -212 0
321 318 -319 0
321 -318 319 0
-321 318 319 0
-321 -318 -319 0
322 -321 123 0
322 -321 319 0
-322 321 123 0
-322 321 319 0
322 321 -123 -319 0
-322 -321 -123 -319 0
323 123 -319 0
323 -123 319 0
-323 123 319 0
-323 -123 -319 0
324 325 -322 0
324 -322 323 0
-324 325 322 0
-324 322 323 0
324 -322 -123 0
-324 322 -123 0
324 -325 322 123 -323 0
-324 -325 -322 123 -323 0
325 -123 323 0
-325 123 323 0
-326 323 0
325 -326 -123 0
-325 -326 123 0
325 326 123 -323 0
-325 326 -123 -323 0
-327 323 0
325 -327 123 0
-325 -327 -123 0
325 327 -123 -323 0
-325 327 123 -323 0
328 -324 325 0
328 -324 323 0
-328 324 325 0
-328 324 323 0
328 324 -325 -323 0
-328 -324 -325 -323 0
329 325 -323 0
329 -325 323 0
-329 325 323 0
-329 -325 -323 0
330 -328 132 0
330 -328 212 0
-330 328 132 0
-330 328 212 0
330 -328 320 -136 0
330 -328 -320 136 0
-330 328 320 -136 0
-330 328 -320 136 0
330 328 -132 320 136 -212 0
330 328 -132 -320 -136 -212 0
-330 -328 -132 320 136 -212 0
-330 -328 -132 -320 -136 -212 0
332 132 -320 0
332 -132 320 0
-332 132 320 0
-332 -132 -320 0
331 136 -212 0
331 -136 212 0
-331 136 212 0
-331 -136 -212 0
333 -330 132 0
333 -330 331 0
-333 330 132 0
-333 330 331 0
333 330 -132 -331 0
-333 -330 -132 -331 0
334 132 -331 0
334 -132 331 0
-334 132 331 0
-334 -132 -331 0
335 336 -333 0
335 -333 334 0
-335 336 333 0
-335 333 334 0
335 -333 -132 0
-335 333 -132 0
335 -336 333 132 -334 0
-335 -336 -333 132 -334 0
336 -132 334 0
-336 132 334 0
-337 334 0
336 -337 -132 0
-336 -337 132 0
336 337 132 -334 0
-336 337 -132 -334 0
-338 334 0
336 -338 132 0
-336 -338 -132 0
336 338 -132 -334 0
-336 338 132 -334 0
339 -335 336 0
339 -335 334 0
-339 335 336 0
-339 335 334 0
339 335 -336 -334 0
-339 -335 -336 -334 0
340 336 -334 0
340 -336 334 0
-340 336 334 0
-340 -336 -334 0
341 -339 140 0
341 -339 212 0
-341 339 140 0
-341 339 212 0
341 -339 332 -144 0
341 -339 -332 144 0
-341 339 332 -144 0
-341 339 -332 144 0
341 339 -140 332 144 -212 0
341 339 -140 -332 -144 -212 0
-341 -339 -140 332 144 -212 0
-341 -339 -140 -332 -144 -212 0
343 140 -332 0
343 -140 332 0
-343 140 332 0
-343 -140 -332 0
342 144 -212 0
342 -144 212 0
-342 144 212 0
-342 -144 -212 0
344 341 -342 0
344 -341 342 0
-344 341 342 0
-344 -341 -342 0
345 -344 140 0
345 -344 342 0
-345 344 140 0
-345 344 342 0
345 344 -140 -342 0
-345 -344 -140 -342 0
346 140 -342 0
346 -140 342 0
-346 140 342 0
-346 -140 -342 0
347 348 -345 0
347 -345 346 0
-347 348 345 0
-347 345 346 0
347 -345 -140 0
-347 345 -140 0
347 -348 345 140 -346 0
-347 -348 -345 140 -346 0
348 -140 346 0
-348 140 346 0
-349 346 0
348 -349 -140 0
-348 -349 140 0
348 349 140 -346 0
-348 349 -140 -346 0
-350 346 0
348 -350 140 0
-348 -350 -140 0
348 350 -140 -346 0
-348 350 140 -346 0
351 -347 348 0
351 -347 346 0
-351 347 348 0
-351 347 346 0
351 347 -348 -346 0
-351 -347 -348 -346 0
352 348 -346 0
352 -348 346 0
-352 348 346 0
-352 -348 -346 0
353 -351 149 0
353 -351 212 0
-353 351 149 0
-353 351 212 0
353 -351 343 -153 0
353 -351 -343 153 0
-353 351 343 -153 0
-353 351 -343 153 0
353 351 -149 343 153 -212 0
353 351 -149 -343 -153 -212 0
-353 -351 -149 343 153 -212 0
-353 -351 -149 -343 -153 -212 0
355 149 -343 0
355 -149 343 0
-355 149 343 0
-355 -149 -343 0
354 153 -212 0
354 -153 212 0
-354 153 212 0
-354 -153 -212 0
356 353 -354 0
356 -353 354 0
-356 353 354 0
-356 -353 -354 0
357 -356 149 0
357 -356 354 0
-357 356 149 0
-357 356 354 0
357 356 -149 -354 0
-357 -356 -149 -354 0
358 149 -354 0
358 -149 354 0
-358 149 354 0
-358 -149 -354 0
359 360 -357 0
359 -357 358 0
-359 360 357 0
-359 357 358 0
359 -357 -149 0
-359 357 -149 0
359 -360 357 149 -358 0
-359 -360 -357 149 -358 0
360 -149 358 0
-360 149 358 0
-361 358 0
360 -361 -149 0
-360 -361 149 0
360 361 149 -358 0
-360 361 -149 -358 0
-362 358 0
360 -362 149 0
-360 -362 -149 0
360 362 -149 -358 0
-360 362 149 -358 0
363 -359 360 0
363 -359 358 0
-363 359 360 0
-363 359 358 0
363 359 -360 -358 0
-363 -359 -360 -358 0
364 360 -358 0
364 -360 358 0
-364 360 358 0
-364 -360 -358 0
365 -363 158 0
365 -363 212 0
-365 363 158 0
-365 363 212 0
365 -363 355 -162 0
365 -363 -355 162 0
-365 363 355 -162 0
-365 363 -355 162 0
365 363 -158 355 162 -212 0
365 363 -158 -355 -162 -212 0
-365 -363 -158 355 162 -212 0
-365 -363 -158 -355 -162 -212 0
367 158 -355 0
367 -158 355 0
-367 158 355 0
-367 -158 -355 0
366 162 -212 0
366 -162 212 0
-366 162 212 0
-366 -162 -212 0
368 -365 158 0
368 -365 366 0
-368 365 158 0
-368 365 366 0
368 365 -158 -366 0
-368 -365 -158 -366 0
369 158 -366 0
369 -158 366 0
-369 158 366 0
-369 -158 -366 0
370 371 -368 0
370 -368 369 0
-370 371 368 0
-370 368 369 0
370 -368 -158 0
-370 368 -158 0
370 -371 368 158 -369 0
-370 -371 -368 158 -369 0
371 -158 369 0
-371 158 369 0
-372 369 0
371 -372 -158 0
-371 -372 158 0
371 372 158 -369 0
-371 372 -158 -369 0
-373 369 0
371 -373 158 0
-371 -373 -158 0
371 373 -158 -369 0
-371 373 158 -369 0
374 -370 371 0
374 -370 369 0
-374 370 371 0
-374 370 369 0
374 370 -371 -369 0
-374 -370 -371 -369 0
375 371 -369 0
375 -371 369 0
-375 371 369 0
-375 -371 -369 0
376 -374 166 0
376 -374 212 0
-376 374 166 0
-376 374 212 0
376 -374 367 -170 0
376 -374 -367 170 0
-376 374 367 -170 0
-376 374 -367 170 0
376 374 -166 367 170 -212 0
376 374 -166 -367 -170 -212 0
-376 -374 -166 367 170 -212 0
-376 -374 -166 -367 -170 -212 0
378 166 -367 0
378 -166 367 0
-378 166 367 0
-378 -166 -367 0
377 170 -212 0
377 -170 212 0
-377 170 212 0
-377 -170 -212 0
379 -376 166 0
379 -376 377 0
-379 376 166 0
-379 376 377 0
379 376 -166 -377 0
-379 -376 -166 -377 0
380 166 -377 0
380 -166 377 0
-380 166 377 0
-380 -166 -377 0
381 382 -379 0
381 -379 380 0
-381 382 379 0
-381 379 380 0
381 -379 -166 0
-381 379 -166 0
381 -382 379 166 -380 0
-381 -382 -379 166 -380 0
382 -166 380 0
-382 166 380 0
-383 380 0
382 -383 -166 0
-382 -383 166 0
382 383 166 -380 0
-382 383 -166 -380 0
-384 380 0
382 -384 166 0
-382 -384 -166 0
382 384 -166 -380 0
-382 384 166 -380 0
385 -381 382 0
385 -381 380 0
-385 381 382 0
-385 381 380 0
385 381 -382 -380 0
-385 -381 -382 -380 0
386 382 -380 0
386 -382 380 0
-386 382 380 0
-386 -382 -380 0
387 -385 174 0
387 -385 212 0
-387 385 174 0
-387 385 212 0
387 -385 378 -178 0
387 -385 -378 178 0
-387 385 378 -178 0
-387 385 -378 178 0
387 385 -174 378 178 -212 0
387 385 -174 -378 -178 -212 0
-387 -385 -174 378 178 -212 0
-387 -385 -174 -378 -178 -212 0
389 174 -378 0
389 -174 378 0
-389 174 378 0
-389 -174 -378 0
388 178 -212 0
388 -178 212 0
-388 178 212 0
-388 -178 -212 0
390 387 -388 0
390 -387 388 0
-390 387 388 0
-390 -387 -388 0
391 -390 174 0
391 -390 388 0
-391 390 174 0
-391 390 388 0
391 390 -174 -388 0
-391 -390 -174 -388 0
392 174 -388 0
392 -174 388 0
-392 174 388 0
-392 -174 -388 0
393 394 -391 0
393 -391 392 0
-393 394 391 0
-393 391 392 0
393 -391 -174 0
-393 391 -174 0
393 -394 391 174 -392 0
-393 -394 -391 174 -392 0
394 -174 392 0
-394 174 392 0
-395 392 0
394 -395 -174 0
-394 -395 174 0
394 395 174 -392 0
-394 395 -174 -392 0
-396 392 0
394 -396 174 0
-394 -396 -174 0
394 396 -174 -392 0
-394 396 174 -392 0
397 -393 394 0
397 -393 392 0
-397 393 394 0
-397 393 392 0
397 393 -394 -392 0
-397 -393 -394 -392 0
398 394 -392 0
398 -394 392 0
-398 394 392 0
-398 -394 -392 0
399 -397 183 0
399 -397 212 0
-399 397 183 0
-399 397 212 0
399 -397 389 -187 0
399 -397 -389 187 0
-399 397 389 -187 0
-399 397 -389 187 0
399 397 -183 389 187 -212 0
399 397 -183 -389 -187 -212 0
-399 -397 -183 389 187 -212 0
-399 -397 -183 -389 -187 -212 0
401 183 -389 0
401 -183 389 0
-401 183 389 0
-401 -183 -389 0
400 187 -212 0
400 -187 212 0
-400 187 212 0
-400 -187 -212 0
402 -399 183 0
402 -399 400 0
-402 399 183 0
-402 399 400 0
402 399 -183 -400 0
-402 -399 -183 -400 0
403 183 -400 0
403 -183 400 0
-403 183 400 0
-403 -183 -400 0
404 405 -402 0
404 -402 403 0
-404 405 402 0
-404 402 403 0
404 -402 -183 0
-404 402 -183 0
404 -405 402 183 -403 0
-404 -405 -402 183 -403 0
405 -183 403 0
-405 183 403 0
-406 403 0
405 -406 -183 0
-405 -406 183 0
405 406 183 -403 0
-405 406 -183 -403 0
-407 403 0
405 -407 183 0
-405 -407 -183 0
405 407 -183 -403 0
-405 407 183 -403 0
408 -404 405 0
408 -404 403 0
-408 404 405 0
-408 404 403 0
408 404 -405 -403 0
-408 -404 -405 -403 0
409 405 -403 0
409 -405 403 0
-409 405 403 0
-409 -405 -403 0
410 -408 191 0
410 -408 212 0
-410 408 191 0
-410 408 212 0
410 -408 401 -195 0
410 -408 -401 195 0
-410 408 401 -195 0
-410 408 -401 195 0
410 408 -191 401 195 -212 0
410 408 -191 -401 -195 -212 0
-410 -408 -191 401 195 -212 0
-410 -408 -191 -401 -195 -212 0
412 191 -401 0
412 -191 401 0
-412 191 401 0
-412 -191 -401 0
411 195 -212 0
411 -195 212 0
-411 195 212 0
-411 -195 -212 0
413 -410 191 0
413 -410 411 0
-413 410 191 0
-413 410 411 0
413 410 -191 -411 0
-413 -410 -191 -411 0
414 191 -411 0
414 -191 411 0
-414 191 411 0
-414 -191 -411 0
415 416 -413 0
415 -413 414 0
-415 416 413 0
-415 413 414 0
415 -413 -191 0
-415 413 -191 0
415 -416 413 191 -414 0
-415 -416 -413 191 -414 0
416 -191 414 0
-416 191 414 0
-417 414 0
416 -417 -191 0
-416 -417 191 0
416 417 191 -414 0
-416 417 -191 -414 0
-418 414 0
416 -418 191 0
-416 -418 -191 0
416 418 -191 -414 0
-416 418 191 -414 0
419 -415 416 0
419 -415 414 0
-419 415 416 0
-419 415 414 0
419 415 -416 -414 0
-419 -415 -416 -414 0
420 416 -414 0
420 -416 414 0
-420 416 414 0
-420 -416 -414 0
421 -419 199 0
421 -419 212 0
-421 419 199 0
-421 419 212 0
421 -419 412 -203 0
421 -419 -412 203 0
-421 419 412 -203 0
-421 419 -412 203 0
421 419 -199 412 203 -212 0
421 419 -199 -412 -203 -212 0
-421 -419 -199 412 203 -212 0
-421 -419 -199 -412 -203 -212 0
423 199 -412 0
423 -199 412 0
-423 199 412 0
-423 -199 -412 0
422 203 -212 0
422 -203 212 0
-422 203 212 0
-422 -203 -212 0
424 -421 199 0
424 -421 422 0
-424 421 199 0
-424 421 422 0
424 421 -199 -422 0
-424 -421 -199 -422 0
425 199 -422 0
425 -199 422 0
-425 199 422 0
-425 -199 -422 0
426 427 -424 0
426 -424 425 0
-426 427 424 0
-426 424 425 0
426 -424 -199 0
-426 424 -199 0
426 -427 424 199 -425 0
-426 -427 -424 199 -425 0
427 -199 425 0
-427 199 425 0
-428 425 0
427 -428 -199 0
-427 -428 199 0
427 428 199 -425 0
-427 428 -199 -425 0
-429 425 0
427 -429 199 0
-427 -429 -199 0
427 429 -199 -425 0
-427 429 199 -425 0
430 -426 427 0
430 -426 425 0
-430 426 427 0
-430 426 425 0
430 426 -427 -425 0
-430 -426 -427 -425 0
431 427 -425 0
431 -427 425 0
-431 427 425 0
-431 -427 -425 0
-220 0
-232 0
-236 0
-243 0
-247 0
-255 0
-259 0
-266 0
-270 0
-278 0
-282 0
-290 0
-294 0
-301 0
-305 0
-313 0
-317 0
-325 0
-329 0
-336 0
-340 0
-348 0
-352 0
-360 0
-364 0
-371 0
-375 0
-382 0
-386 0
-394 0
-398 0
-405 0
-409 0
-416 0
-420 0
-427 0
-431 0
-423 0
-212 0
